seed= 2052018 ;
N= 150 ;
M= 3 ;
F= 3 ;
K= 8 ;
T= 24 ;

p=[ 4 4 4 4 4 4 4 4 4 4 4 4 4 4 4 4 4 4 4 4 4 4 4 4 4 4 4 4 4 4 4 4 4 4 4 4 4 4 4 4 4 4 4 4 4 4 4 4 4 4 2 2 2 2 2 2 2 2 2 2 2 2 2 2 2 2 2 2 2 2 2 2 2 2 2 2 2 2 2 2 2 2 2 2 2 2 2 2 2 2 2 2 2 2 2 2 2 2 2 2 2 2 2 2 2 2 2 2 2 2 2 2 2 2 2 2 2 2 2 2 2 2 2 2 2 2 2 2 2 2 2 2 2 2 2 2 2 2 2 2 2 2 2 2 2 2 2 2 2 2 ];
r=[ 0 0 0 0 0 0 0 0 0 0 0 0 0 0 0 0 0 0 0 0 0 0 0 0 0 0 0 0 0 0 0 0 0 0 0 0 0 0 0 0 0 0 0 0 0 0 0 0 0 0 0 0 0 0 0 0 0 0 0 0 0 0 0 0 0 0 0 0 0 0 0 0 0 0 0 0 0 0 0 0 0 0 0 0 0 0 0 0 0 0 0 0 0 0 0 0 0 0 0 0 0 0 0 0 0 0 0 0 0 0 0 0 0 0 0 0 0 0 0 0 0 0 0 0 0 0 0 0 0 0 0 0 0 0 0 0 0 0 0 0 0 0 0 0 0 0 0 0 0 0 ];
d=[ 5 18 16 17 4 20 14 0 22 5 20 3 24 19 10 18 4 0 13 16 13 7 9 11 14 22 25 18 22 15 23 19 15 23 19 15 19 23 11 11 5 8 14 16 12 24 3 19 4 22 7 2 17 18 9 9 16 22 7 0 25 6 21 12 16 23 16 14 13 20 11 1 24 6 15 6 20 2 20 18 18 24 20 3 13 16 8 25 23 24 4 14 1 22 2 19 3 20 16 0 17 16 7 4 20 13 15 11 25 6 18 14 7 17 20 7 10 19 0 8 15 24 21 21 16 13 24 16 24 5 23 16 2 7 3 7 0 19 2 15 9 22 21 22 13 11 6 16 23 0 ];
s=[ 1 1 1 1 1 1 1 1 1 1 1 1 1 1 1 1 1 1 1 1 1 1 1 1 1 1 1 1 1 1 1 1 1 1 1 1 1 1 1 1 1 1 1 1 1 1 1 1 1 1 1 1 1 1 1 1 1 1 1 1 1 1 1 1 1 1 1 1 1 1 1 1 1 1 1 1 1 1 1 1 1 1 1 1 1 1 1 1 1 1 1 1 1 1 1 1 1 1 1 1 1 1 1 1 1 1 1 1 1 1 1 1 1 1 1 1 1 1 1 1 1 1 1 1 1 1 1 1 1 1 1 1 1 1 1 1 1 1 1 1 1 1 1 1 1 1 1 1 1 1 ];
w=[ 1 1 1 4 4 1 3 3 5 2 3 5 3 1 4 1 2 4 3 5 1 4 5 3 4 5 5 1 5 3 3 2 3 3 3 3 4 4 5 5 4 3 3 5 4 3 4 2 5 1 5 2 3 1 4 2 1 2 3 1 4 5 4 3 3 2 4 5 5 2 5 5 5 4 1 5 5 5 4 4 1 1 1 1 5 4 4 2 2 5 3 1 3 1 1 2 2 4 1 3 3 4 3 4 5 3 1 3 5 3 3 4 1 1 2 4 3 3 2 4 2 2 2 2 4 5 2 3 3 5 1 1 4 1 4 5 4 2 5 5 2 3 4 1 5 4 2 5 3 5 ];
f=[ 1 1 1 1 1 1 1 1 1 1 1 1 1 1 1 1 1 1 1 1 1 1 1 1 1 1 1 1 1 1 1 1 1 1 1 1 1 1 1 1 1 1 1 1 1 1 1 1 1 1 2 2 2 2 2 2 2 2 2 2 2 2 2 2 2 2 2 2 2 2 2 2 2 2 2 2 2 2 2 2 2 2 2 2 2 2 2 2 2 2 2 2 2 2 2 2 2 2 2 2 3 3 3 3 3 3 3 3 3 3 3 3 3 3 3 3 3 3 3 3 3 3 3 3 3 3 3 3 3 3 3 3 3 3 3 3 3 3 3 3 3 3 3 3 3 3 3 3 3 3 ];

e1=[ 10 10 10 10 10 10 10 10 10 10 10 10 8 8 8 8 8 8 8 8 8 8 8 8 ];
e2=[ 10 10 10 10 10 10 10 10 9 9 9 9 8 8 8 8 8 8 8 8 9 9 9 9 ];